c strEdges: 189  randomEdges: 441 
c degrees:  2  3 
c girth: 10 max: 8.032766  
c Hgirth mixed MAXCUT instance
c generated from an undirected graph
c to solve unweighted MaxCut
p cnf 140 1260
79 9 0
-79 -9 0
79 47 0
-79 -47 0
79 62 0
-79 -62 0
130 47 0
-130 -47 0
130 100 0
-130 -100 0
13 42 0
-13 -42 0
13 35 0
-13 -35 0
118 20 0
-118 -20 0
118 44 0
-118 -44 0
133 74 0
-133 -74 0
133 97 0
-133 -97 0
25 40 0
-25 -40 0
25 111 0
-25 -111 0
25 73 0
-25 -73 0
16 107 0
-16 -107 0
16 97 0
-16 -97 0
16 78 0
-16 -78 0
136 97 0
-136 -97 0
136 119 0
-136 -119 0
101 17 0
-101 -17 0
101 72 0
-101 -72 0
101 81 0
-101 -81 0
128 91 0
-128 -91 0
128 56 0
-128 -56 0
128 129 0
-128 -129 0
37 77 0
-37 -77 0
37 64 0
-37 -64 0
37 40 0
-37 -40 0
26 48 0
-26 -48 0
26 87 0
-26 -87 0
26 94 0
-26 -94 0
57 102 0
-57 -102 0
57 14 0
-57 -14 0
85 87 0
-85 -87 0
85 119 0
-85 -119 0
92 119 0
-92 -119 0
92 139 0
-92 -139 0
92 61 0
-92 -61 0
125 68 0
-125 -68 0
125 69 0
-125 -69 0
125 66 0
-125 -66 0
41 63 0
-41 -63 0
41 98 0
-41 -98 0
41 21 0
-41 -21 0
124 70 0
-124 -70 0
124 76 0
-124 -76 0
105 99 0
-105 -99 0
105 102 0
-105 -102 0
105 73 0
-105 -73 0
55 67 0
-55 -67 0
55 6 0
-55 -6 0
55 107 0
-55 -107 0
127 89 0
-127 -89 0
127 109 0
-127 -109 0
127 9 0
-127 -9 0
1 80 0
-1 -80 0
1 94 0
-1 -94 0
1 114 0
-1 -114 0
5 121 0
-5 -121 0
5 59 0
-5 -59 0
5 89 0
-5 -89 0
96 78 0
-96 -78 0
96 47 0
-96 -47 0
46 21 0
-46 -21 0
46 3 0
-46 -3 0
18 66 0
-18 -66 0
18 17 0
-18 -17 0
18 137 0
-18 -137 0
122 84 0
-122 -84 0
122 8 0
-122 -8 0
122 72 0
-122 -72 0
104 137 0
-104 -137 0
104 71 0
-104 -71 0
104 20 0
-104 -20 0
53 129 0
-53 -129 0
53 138 0
-53 -138 0
53 12 0
-53 -12 0
120 29 0
-120 -29 0
120 126 0
-120 -126 0
120 54 0
-120 -54 0
27 110 0
-27 -110 0
27 61 0
-27 -61 0
27 135 0
-27 -135 0
140 134 0
-140 -134 0
140 14 0
-140 -14 0
140 60 0
-140 -60 0
33 44 0
-33 -44 0
33 111 0
-33 -111 0
33 138 0
-33 -138 0
50 100 0
-50 -100 0
50 129 0
-50 -129 0
50 87 0
-50 -87 0
131 103 0
-131 -103 0
131 139 0
-131 -139 0
88 111 0
-88 -111 0
88 65 0
-88 -65 0
88 107 0
-88 -107 0
86 60 0
-86 -60 0
86 126 0
-86 -126 0
106 12 0
-106 -12 0
106 99 0
-106 -99 0
106 121 0
-106 -121 0
90 56 0
-90 -56 0
90 42 0
-90 -42 0
116 8 0
-116 -8 0
116 76 0
-116 -76 0
95 138 0
-95 -138 0
95 110 0
-95 -110 0
132 2 0
-132 -2 0
132 77 0
-132 -77 0
75 71 0
-75 -71 0
75 100 0
-75 -100 0
75 63 0
-75 -63 0
45 54 0
-45 -54 0
45 2 0
-45 -2 0
31 81 0
-31 -81 0
31 134 0
-31 -134 0
11 114 0
-11 -114 0
11 77 0
-11 -77 0
11 12 0
-11 -12 0
15 14 0
-15 -14 0
15 74 0
-15 -74 0
15 21 0
-15 -21 0
28 39 0
-28 -39 0
28 4 0
-28 -4 0
28 48 0
-28 -48 0
43 135 0
-43 -135 0
43 8 0
-43 -8 0
43 102 0
-43 -102 0
117 3 0
-117 -3 0
117 17 0
-117 -17 0
117 103 0
-117 -103 0
123 36 0
-123 -36 0
123 68 0
-123 -68 0
58 115 0
-58 -115 0
58 3 0
-58 -3 0
58 110 0
-58 -110 0
52 98 0
-52 -98 0
52 39 0
-52 -39 0
52 54 0
-52 -54 0
7 35 0
-7 -35 0
7 6 0
-7 -6 0
7 71 0
-7 -71 0
34 126 0
-34 -126 0
34 78 0
-34 -78 0
34 51 0
-34 -51 0
19 61 0
-19 -61 0
19 36 0
-19 -36 0
19 2 0
-19 -2 0
30 4 0
-30 -4 0
30 67 0
-30 -67 0
30 135 0
-30 -135 0
22 76 0
-22 -76 0
22 68 0
-22 -68 0
22 56 0
-22 -56 0
93 51 0
-93 -51 0
93 103 0
-93 -103 0
93 42 0
-93 -42 0
38 139 0
-38 -139 0
38 20 0
-38 -20 0
23 94 0
-23 -94 0
23 89 0
-23 -89 0
23 81 0
-23 -81 0
108 65 0
-108 -65 0
108 59 0
-108 -59 0
108 84 0
-108 -84 0
113 64 0
-113 -64 0
113 66 0
-113 -66 0
113 67 0
-113 -67 0
24 73 0
-24 -73 0
24 51 0
-24 -51 0
24 80 0
-24 -80 0
10 62 0
-10 -62 0
10 115 0
-10 -115 0
10 35 0
-10 -35 0
32 109 0
-32 -109 0
32 70 0
-32 -70 0
32 44 0
-32 -44 0
112 72 0
-112 -72 0
112 29 0
-112 -29 0
112 91 0
-112 -91 0
49 59 0
-49 -59 0
49 98 0
-49 -98 0
82 6 0
-82 -6 0
82 60 0
-82 -60 0
82 70 0
-82 -70 0
83 69 0
-83 -69 0
83 74 0
-83 -74 0
83 109 0
-83 -109 0
97 103 0
-97 -103 0
24 135 0
-24 -135 0
137 12 0
-137 -12 0
68 73 0
-68 -73 0
136 28 0
-136 -28 0
45 34 0
-45 -34 0
137 100 0
-137 -100 0
47 78 0
-47 -78 0
85 139 0
-85 -139 0
68 103 0
-68 -103 0
132 103 0
-132 -103 0
123 91 0
-123 -91 0
117 29 0
-117 -29 0
96 7 0
-96 -7 0
83 100 0
-83 -100 0
53 4 0
-53 -4 0
93 3 0
-93 -3 0
48 119 0
-48 -119 0
26 86 0
-26 -86 0
30 54 0
-30 -54 0
65 73 0
-65 -73 0
125 134 0
-125 -134 0
130 60 0
-130 -60 0
124 75 0
-124 -75 0
21 98 0
-21 -98 0
5 15 0
-5 -15 0
24 98 0
-24 -98 0
88 61 0
-88 -61 0
106 2 0
-106 -2 0
33 21 0
-33 -21 0
18 39 0
-18 -39 0
90 110 0
-90 -110 0
17 114 0
-17 -114 0
7 73 0
-7 -73 0
130 54 0
-130 -54 0
31 52 0
-31 -52 0
26 73 0
-26 -73 0
53 43 0
-53 -43 0
37 4 0
-37 -4 0
122 56 0
-122 -56 0
1 110 0
-1 -110 0
49 99 0
-49 -99 0
138 65 0
-138 -65 0
112 139 0
-112 -139 0
137 60 0
-137 -60 0
101 33 0
-101 -33 0
50 49 0
-50 -49 0
85 32 0
-85 -32 0
9 14 0
-9 -14 0
5 103 0
-5 -103 0
128 38 0
-128 -38 0
128 117 0
-128 -117 0
82 67 0
-82 -67 0
51 139 0
-51 -139 0
70 59 0
-70 -59 0
80 135 0
-80 -135 0
92 24 0
-92 -24 0
2 14 0
-2 -14 0
96 81 0
-96 -81 0
45 89 0
-45 -89 0
16 134 0
-16 -134 0
35 126 0
-35 -126 0
124 39 0
-124 -39 0
137 110 0
-137 -110 0
93 17 0
-93 -17 0
116 64 0
-116 -64 0
122 73 0
-122 -73 0
101 100 0
-101 -100 0
127 72 0
-127 -72 0
130 80 0
-130 -80 0
25 28 0
-25 -28 0
118 10 0
-118 -10 0
120 121 0
-120 -121 0
79 86 0
-79 -86 0
101 127 0
-101 -127 0
58 103 0
-58 -103 0
49 110 0
-49 -110 0
25 115 0
-25 -115 0
34 109 0
-34 -109 0
13 23 0
-13 -23 0
89 78 0
-89 -78 0
41 139 0
-41 -139 0
105 18 0
-105 -18 0
124 22 0
-124 -22 0
86 113 0
-86 -113 0
24 9 0
-24 -9 0
133 60 0
-133 -60 0
124 89 0
-124 -89 0
16 137 0
-16 -137 0
86 97 0
-86 -97 0
133 123 0
-133 -123 0
25 15 0
-25 -15 0
112 62 0
-112 -62 0
133 7 0
-133 -7 0
32 3 0
-32 -3 0
121 14 0
-121 -14 0
123 64 0
-123 -64 0
85 88 0
-85 -88 0
119 94 0
-119 -94 0
6 69 0
-6 -69 0
95 2 0
-95 -2 0
26 43 0
-26 -43 0
90 45 0
-90 -45 0
25 76 0
-25 -76 0
23 109 0
-23 -109 0
117 126 0
-117 -126 0
96 110 0
-96 -110 0
140 108 0
-140 -108 0
77 121 0
-77 -121 0
70 61 0
-70 -61 0
5 49 0
-5 -49 0
58 109 0
-58 -109 0
37 2 0
-37 -2 0
24 4 0
-24 -4 0
107 48 0
-107 -48 0
43 78 0
-43 -78 0
79 28 0
-79 -28 0
13 10 0
-13 -10 0
23 112 0
-23 -112 0
43 22 0
-43 -22 0
119 71 0
-119 -71 0
46 76 0
-46 -76 0
102 21 0
-102 -21 0
129 56 0
-129 -56 0
53 21 0
-53 -21 0
37 94 0
-37 -94 0
26 17 0
-26 -17 0
89 65 0
-89 -65 0
120 39 0
-120 -39 0
128 39 0
-128 -39 0
121 109 0
-121 -109 0
38 97 0
-38 -97 0
7 61 0
-7 -61 0
77 65 0
-77 -65 0
84 14 0
-84 -14 0
55 95 0
-55 -95 0
101 34 0
-101 -34 0
1 27 0
-1 -27 0
46 138 0
-46 -138 0
104 2 0
-104 -2 0
101 117 0
-101 -117 0
80 61 0
-80 -61 0
136 139 0
-136 -139 0
71 139 0
-71 -139 0
58 19 0
-58 -19 0
138 69 0
-138 -69 0
37 1 0
-37 -1 0
115 35 0
-115 -35 0
131 11 0
-131 -11 0
86 58 0
-86 -58 0
127 115 0
-127 -115 0
57 135 0
-57 -135 0
41 91 0
-41 -91 0
5 33 0
-5 -33 0
102 35 0
-102 -35 0
2 98 0
-2 -98 0
46 140 0
-46 -140 0
16 18 0
-16 -18 0
82 4 0
-82 -4 0
101 5 0
-101 -5 0
54 81 0
-54 -81 0
16 109 0
-16 -109 0
127 63 0
-127 -63 0
22 67 0
-22 -67 0
19 80 0
-19 -80 0
80 51 0
-80 -51 0
128 108 0
-128 -108 0
136 66 0
-136 -66 0
119 39 0
-119 -39 0
57 61 0
-57 -61 0
17 56 0
-17 -56 0
136 7 0
-136 -7 0
32 36 0
-32 -36 0
103 61 0
-103 -61 0
2 135 0
-2 -135 0
140 71 0
-140 -71 0
12 65 0
-12 -65 0
18 121 0
-18 -121 0
118 55 0
-118 -55 0
95 73 0
-95 -73 0
3 59 0
-3 -59 0
85 104 0
-85 -104 0
129 139 0
-129 -139 0
48 3 0
-48 -3 0
21 54 0
-21 -54 0
82 139 0
-82 -139 0
84 138 0
-84 -138 0
33 139 0
-33 -139 0
25 43 0
-25 -43 0
131 111 0
-131 -111 0
104 29 0
-104 -29 0
101 108 0
-101 -108 0
120 44 0
-120 -44 0
91 35 0
-91 -35 0
117 19 0
-117 -19 0
18 8 0
-18 -8 0
68 64 0
-68 -64 0
122 137 0
-122 -137 0
96 100 0
-96 -100 0
23 78 0
-23 -78 0
110 44 0
-110 -44 0
127 61 0
-127 -61 0
122 112 0
-122 -112 0
128 97 0
-128 -97 0
22 139 0
-22 -139 0
105 70 0
-105 -70 0
61 73 0
-61 -73 0
119 126 0
-119 -126 0
32 6 0
-32 -6 0
19 47 0
-19 -47 0
79 137 0
-79 -137 0
57 31 0
-57 -31 0
15 32 0
-15 -32 0
44 62 0
-44 -62 0
92 28 0
-92 -28 0
138 109 0
-138 -109 0
21 71 0
-21 -71 0
55 109 0
-55 -109 0
70 126 0
-70 -126 0
85 92 0
-85 -92 0
28 49 0
-28 -49 0
11 82 0
-11 -82 0
43 14 0
-43 -14 0
92 109 0
-92 -109 0
13 116 0
-13 -116 0
115 98 0
-115 -98 0
40 134 0
-40 -134 0
57 110 0
-57 -110 0
117 134 0
-117 -134 0
41 115 0
-41 -115 0
62 59 0
-62 -59 0
88 31 0
-88 -31 0
26 10 0
-26 -10 0
131 76 0
-131 -76 0
118 58 0
-118 -58 0
1 6 0
-1 -6 0
43 10 0
-43 -10 0
1 23 0
-1 -23 0
7 77 0
-7 -77 0
67 84 0
-67 -84 0
88 89 0
-88 -89 0
89 98 0
-89 -98 0
34 102 0
-34 -102 0
92 104 0
-92 -104 0
26 51 0
-26 -51 0
42 80 0
-42 -80 0
18 122 0
-18 -122 0
37 24 0
-37 -24 0
58 76 0
-58 -76 0
35 51 0
-35 -51 0
130 34 0
-130 -34 0
21 103 0
-21 -103 0
68 138 0
-68 -138 0
26 46 0
-26 -46 0
118 125 0
-118 -125 0
46 7 0
-46 -7 0
16 34 0
-16 -34 0
96 67 0
-96 -67 0
136 117 0
-136 -117 0
40 109 0
-40 -109 0
104 94 0
-104 -94 0
7 3 0
-7 -3 0
116 71 0
-116 -71 0
99 8 0
-99 -8 0
126 65 0
-126 -65 0
77 100 0
-77 -100 0
78 111 0
-78 -111 0
132 45 0
-132 -45 0
125 46 0
-125 -46 0
104 14 0
-104 -14 0
105 71 0
-105 -71 0
32 111 0
-32 -111 0
99 100 0
-99 -100 0
15 89 0
-15 -89 0
112 3 0
-112 -3 0
108 10 0
-108 -10 0
77 2 0
-77 -2 0
89 115 0
-89 -115 0
124 1 0
-124 -1 0
131 59 0
-131 -59 0
11 52 0
-11 -52 0
1 35 0
-1 -35 0
37 104 0
-37 -104 0
42 94 0
-42 -94 0
16 128 0
-16 -128 0
87 66 0
-87 -66 0
130 4 0
-130 -4 0
26 135 0
-26 -135 0
68 81 0
-68 -81 0
27 87 0
-27 -87 0
22 62 0
-22 -62 0
26 113 0
-26 -113 0
83 80 0
-83 -80 0
55 83 0
-55 -83 0
20 99 0
-20 -99 0
121 137 0
-121 -137 0
79 128 0
-79 -128 0
37 65 0
-37 -65 0
127 88 0
-127 -88 0
13 131 0
-13 -131 0
26 97 0
-26 -97 0
80 59 0
-80 -59 0
61 64 0
-61 -64 0
31 94 0
-31 -94 0
1 4 0
-1 -4 0
124 113 0
-124 -113 0
22 91 0
-22 -91 0
17 71 0
-17 -71 0
117 10 0
-117 -10 0
20 59 0
-20 -59 0
13 123 0
-13 -123 0
124 34 0
-124 -34 0
140 115 0
-140 -115 0
122 32 0
-122 -32 0
28 12 0
-28 -12 0
5 95 0
-5 -95 0
25 68 0
-25 -68 0
33 7 0
-33 -7 0
34 121 0
-34 -121 0
55 30 0
-55 -30 0
91 14 0
-91 -14 0
36 59 0
-36 -59 0
105 62 0
-105 -62 0
41 58 0
-41 -58 0
139 59 0
-139 -59 0
119 8 0
-119 -8 0
16 84 0
-16 -84 0
91 100 0
-91 -100 0
13 7 0
-13 -7 0
41 55 0
-41 -55 0
85 45 0
-85 -45 0
7 109 0
-7 -109 0
120 129 0
-120 -129 0
132 4 0
-132 -4 0
47 35 0
-47 -35 0
92 137 0
-92 -137 0
33 75 0
-33 -75 0
79 118 0
-79 -118 0
16 41 0
-16 -41 0
25 53 0
-25 -53 0
82 20 0
-82 -20 0
11 69 0
-11 -69 0
55 32 0
-55 -32 0
116 100 0
-116 -100 0
101 125 0
-101 -125 0
48 137 0
-48 -137 0
1 122 0
-1 -122 0
47 98 0
-47 -98 0
135 61 0
-135 -61 0
89 59 0
-89 -59 0
49 114 0
-49 -114 0
25 49 0
-25 -49 0
22 99 0
-22 -99 0
84 64 0
-84 -64 0
79 29 0
-79 -29 0
118 64 0
-118 -64 0
78 129 0
-78 -129 0
48 80 0
-48 -80 0
86 19 0
-86 -19 0
15 6 0
-15 -6 0
19 29 0
-19 -29 0
26 1 0
-26 -1 0
85 106 0
-85 -106 0
47 111 0
-47 -111 0
130 88 0
-130 -88 0
96 15 0
-96 -15 0
45 103 0
-45 -103 0
106 75 0
-106 -75 0
99 3 0
-99 -3 0
125 61 0
-125 -61 0
113 73 0
-113 -73 0
85 125 0
-85 -125 0
108 60 0
-108 -60 0
16 63 0
-16 -63 0
128 59 0
-128 -59 0
46 82 0
-46 -82 0
104 7 0
-104 -7 0
122 126 0
-122 -126 0
60 4 0
-60 -4 0
33 3 0
-33 -3 0
88 24 0
-88 -24 0
11 110 0
-11 -110 0
19 6 0
-19 -6 0
107 81 0
-107 -81 0
134 14 0
-134 -14 0
127 70 0
-127 -70 0
33 126 0
-33 -126 0
105 3 0
-105 -3 0
26 131 0
-26 -131 0
92 67 0
-92 -67 0
86 108 0
-86 -108 0
105 49 0
-105 -49 0
57 64 0
-57 -64 0
133 73 0
-133 -73 0
96 43 0
-96 -43 0
40 61 0
-40 -61 0
13 55 0
-13 -55 0
136 43 0
-136 -43 0
91 12 0
-91 -12 0
33 67 0
-33 -67 0
46 86 0
-46 -86 0
16 8 0
-16 -8 0
46 107 0
-46 -107 0
34 6 0
-34 -6 0
45 7 0
-45 -7 0
127 87 0
-127 -87 0
30 112 0
-30 -112 0
87 62 0
-87 -62 0
58 80 0
-58 -80 0
37 109 0
-37 -109 0
84 134 0
-84 -134 0
105 139 0
-105 -139 0
119 12 0
-119 -12 0
133 64 0
-133 -64 0
104 113 0
-104 -113 0
83 134 0
-83 -134 0
36 4 0
-36 -4 0
86 31 0
-86 -31 0
30 137 0
-30 -137 0
5 107 0
-5 -107 0
1 29 0
-1 -29 0
54 94 0
-54 -94 0
105 96 0
-105 -96 0
30 47 0
-30 -47 0
76 94 0
-76 -94 0
140 84 0
-140 -84 0
92 73 0
-92 -73 0
43 44 0
-43 -44 0
47 64 0
-47 -64 0
113 8 0
-113 -8 0
136 2 0
-136 -2 0
129 114 0
-129 -114 0
66 76 0
-66 -76 0
21 51 0
-21 -51 0
103 54 0
-103 -54 0
33 17 0
-33 -17 0
57 6 0
-57 -6 0
42 59 0
-42 -59 0
47 110 0
-47 -110 0
136 64 0
-136 -64 0
26 29 0
-26 -29 0
